data;

param num_top:=3;

#nodes and edges of the physical network
param n := 10;

set E := (1,2) (1,3) (1,7) (2,4) (2,7) (3,5) (4,8) (5,6) (5,7) (6,7) (6,9) (7,8) (7,9) (8,10) (9,10) ;

#nodes and edges of the virtual networks
set Nl[1] := 8 10 3 4 5 ;
set Nl[2] := 7 4 2 3 8 ;
set Nl[3] := 6 5 2 8 7 ;

set El[1] := (8,10) (3,10) (3,4) (4,5) (5,8) (5,10) (4,8) (4,10) (3,5) (3,8) ;
set El[2] := (4,7) (2,4) (2,3) (3,8) (7,8) (3,7) (2,8) (3,4) (4,8) (2,7) ;
set El[3] := (5,6) (2,5) (2,8) (7,8) (6,7) (2,6) (5,8) (5,7) (6,8) (2,7) ;
